#===============================================================================
# Created using the Atomic Simulation Environment (ASE)

# Tue Apr  8 11:24:39 2025

#=======================================================
lattice_vector 3.951309  0.000000  0.000000  
lattice_vector 0.000000  3.951309  0.000000  
lattice_vector 0.000000  0.000000  3.951309  
atom 3.9381211999999999 3.9381211999999999 3.9381211999999999 Pd
atom 3.8909878000000000 2.0131913500000000 2.0131801299999998 Pd
atom 2.0131917300000000 3.8909878000000000 2.0131800100000001 Pd
atom 2.0131915299999998 2.0131909200000000 3.8909878000000000 Pd
atom 1.1643215800000000 1.1643215300000000 1.1643102200000000 H
  calculate_friction .true.
